488 489 532 533 230 231 531 530 233 232 234 235 236 528 529 490 491 492 525 493 483 482 481 480 479 478 477 476 475 474 473 472 471 495 494 524 521 522 523 526 527 512 513 511 510 509 237 240 239 238 246 247 245 244 243 242 248 249 250 251 252 254 253 255 256 257 300 241 301 302 508 507 506 516 515 514 517 520 518 519 498 497 496 470 469 468 467 466 465 464 463 460 459 462 461 452 453 499 500 501 502 503 504 505 308 307 303 304 306 305 318 317 319 320 321 297 298 299 258 259 260 261 262 263 264 265 266 267 296 295 294 293 270 269 268 271 272 273 274 275 292 291 290 289 288 276 277 278 279 282 281 280 287 286 285 284 283 334 335 336 337 338 339 333 332 331 330 340 341 343 342 366 329 328 327 326 325 324 323 322 373 374 315 314 316 313 309 310 311 312 451 450 448 447 446 442 449 441 440 439 443 444 445 381 380 379 378 377 376 375 395 396 371 372 370 369 368 367 365 344 345 346 364 363 362 347 348 350 349 358 359 361 360 401 402 403 400 399 398 397 394 393 391 392 390 389 388 387 386 382 383 385 408 407 406 405 404 409 384 410 411 412 356 357 355 354 353 352 351 415 416 414 413 417 418 419 420 421 422 423 424 425 426 427 428 429 431 430 432 433 434 435 436 437 438 454 455 456 457 458 2 3 4 1 0 5 573 571 572 6 7 8 9 10 11 14 15 16 17 18 19 20 568 569 570 567 27 26 25 24 21 13 12 23 22 28 29 31 30 32 36 37 38 35 33 34 558 559 550 560 561 562 563 565 566 564 549 548 545 546 547 544 543 541 542 107 108 109 110 111 112 114 115 116 117 106 105 104 103 102 99 100 101 551 552 553 554 98 96 95 97 94 89 90 93 92 91 46 45 555 556 557 41 40 39 42 43 44 47 48 49 54 53 52 50 51 84 85 86 87 88 77 78 62 79 80 81 57 82 83 55 56 58 59 60 61 63 64 76 75 74 73 119 118 120 121 122 123 71 72 65 66 67 68 70 69 124 125 126 127 128 129 130 137 138 139 140 141 136 135 134 133 132 131 113 161 160 155 156 159 158 145 144 143 142 151 150 149 152 148 147 146 157 153 154 165 164 166 167 163 162 168 169 180 181 179 182 183 185 184 194 195 196 197 198 199 200 201 202 204 203 208 207 206 205 209 210 211 212 213 214 215 216 217 223 224 222 221 220 218 219 193 192 191 190 226 225 189 228 229 227 186 188 187 178 177 171 170 172 173 174 175 176 540 538 539 537 536 484 485 486 487 535 534